solution status: time limit reached
objective value:                         165304.42357
y#1                                                 1 	(obj:5700)
y#2                                                 1 	(obj:5700)
y#5                                                 1 	(obj:5700)
y#7                                                 1 	(obj:5700)
y#9                                                 1 	(obj:5700)
y#11                                                1 	(obj:5700)
y#15                                                1 	(obj:5700)
y#16                                                1 	(obj:5700)
y#18                                                1 	(obj:5700)
y#19                                                1 	(obj:5700)
y#21                                                1 	(obj:5700)
y#23                                                1 	(obj:5700)
y#26                                                1 	(obj:5700)
y#27                                                1 	(obj:5700)
y#28                                                1 	(obj:5700)
y#30                                                1 	(obj:5700)
y#32                                                1 	(obj:5700)
y#33                                                1 	(obj:5700)
y#34                                                1 	(obj:5700)
y#41                                                1 	(obj:5700)
y#42                                                1 	(obj:5700)
y#43                                                1 	(obj:5700)
y#44                                                1 	(obj:5700)
y#48                                                1 	(obj:5700)
y#49                                                1 	(obj:5700)
y#51                                                1 	(obj:5700)
y#53                                                1 	(obj:5700)
y#57                                                1 	(obj:5700)
y#58                                                1 	(obj:5700)
x#1#30                                              1 	(obj:0.02329)
x#2#16                                              1 	(obj:0.00459)
x#3#58                                              1 	(obj:0.02312)
x#4#16                                              1 	(obj:0.0119)
x#5#5                                               1 	(obj:0.00187)
x#6#48                                              1 	(obj:0.01751)
x#7#58                                              1 	(obj:0.01938)
x#8#11                                              1 	(obj:0.02618)
x#9#27                                              1 	(obj:0.01649)
x#10#43                                             1 	(obj:0.02499)
x#11#42                                             1 	(obj:0.02448)
x#12#2                                              1 	(obj:0.00357)
x#13#19                                             1 	(obj:0.01292)
x#14#30                                             1 	(obj:0.0102)
x#15#42                                             1 	(obj:0.01224)
x#16#30                                             1 	(obj:0.01666)
x#17#11                                             1 	(obj:0.01734)
x#18#26                                             1 	(obj:0.00935)
x#19#21                                             1 	(obj:0.0051)
x#20#11                                             1 	(obj:0.01802)
x#21#28                                             1 	(obj:0.00782)
x#22#16                                             1 	(obj:0.01241)
x#23#27                                             1 	(obj:0.0068)
x#24#7                                              1 	(obj:0.00901)
x#25#26                                             1 	(obj:0.0034)
x#26#2                                              1 	(obj:0.01139)
x#27#34                                             1 	(obj:0.00374)
x#28#58                                             1 	(obj:0.00714)
x#29#44                                             1 	(obj:0.017)
x#30#15                                             1 	(obj:0.03043)
x#31#21                                             1 	(obj:0.01615)
x#32#5                                              1 	(obj:0.00527)
x#33#9                                              1 	(obj:0.01666)
x#34#1                                              1 	(obj:0.02091)
x#35#57                                             1 	(obj:0.00051)
x#36#19                                             1 	(obj:0.01479)
x#37#9                                              1 	(obj:0.00119)
x#38#48                                             1 	(obj:0.01649)
x#39#19                                             1 	(obj:0.01275)
x#40#7                                              1 	(obj:0.0136)
x#41#32                                             1 	(obj:0.01241)
x#42#44                                             1 	(obj:0.01411)
x#43#9                                              1 	(obj:0.01615)
x#44#48                                             1 	(obj:0.00833)
x#45#42                                             1 	(obj:0.00969)
x#46#1                                              1 	(obj:0.01258)
x#47#7                                              1 	(obj:0.0119)
x#48#49                                             1 	(obj:0.01343)
x#49#26                                             1 	(obj:0.02771)
x#50#53                                             1 	(obj:0.01666)
x#51#41                                             1 	(obj:0.01768)
x#52#41                                             1 	(obj:0.01445)
x#53#1                                              1 	(obj:0.03043)
x#54#16                                             1 	(obj:0.00731)
x#55#26                                             1 	(obj:0.0289)
x#56#42                                             1 	(obj:0.01887)
x#57#26                                             1 	(obj:0.01479)
x#58#9                                              1 	(obj:0.03451)
x#59#23                                             1 	(obj:0.0204)
x#60#5                                              1 	(obj:0.0238)
x#61#21                                             1 	(obj:0.02142)
x#62#26                                             1 	(obj:0.00663)
x#63#16                                             1 	(obj:0.00578)
x#64#41                                             1 	(obj:0.02635)
x#65#33                                             1 	(obj:0.01649)
x#66#33                                             1 	(obj:0.01836)
x#67#53                                             1 	(obj:0.01428)
x#68#9                                              1 	(obj:0.01071)
x#69#48                                             1 	(obj:0.00935)
x#70#9                                              1 	(obj:0.01955)
x#71#42                                             1 	(obj:0.02584)
x#72#58                                             1 	(obj:0.02312)
x#73#18                                             1 	(obj:0.01394)
x#74#7                                              1 	(obj:0.01326)
x#75#57                                             1 	(obj:0.00408)
x#76#1                                              1 	(obj:0.01819)
x#77#53                                             1 	(obj:0.00187)
x#78#28                                             1 	(obj:0.02431)
x#79#19                                             1 	(obj:0.01887)
x#80#43                                             1 	(obj:0.00459)
x#81#2                                              1 	(obj:0.01377)
x#82#41                                             1 	(obj:0.01989)
x#83#48                                             1 	(obj:0.01581)
x#84#16                                             1 	(obj:0.01564)
x#85#5                                              1 	(obj:0.01122)
x#86#9                                              1 	(obj:0.01819)
x#87#23                                             1 	(obj:0.02635)
x#88#15                                             1 	(obj:0.02975)
x#89#27                                             1 	(obj:0.01122)
x#90#34                                             1 	(obj:0.00765)
x#91#2                                              1 	(obj:0.01768)
x#92#57                                             1 	(obj:0.0204)
x#93#49                                             1 	(obj:0.00816)
x#94#32                                             1 	(obj:0.01564)
x#95#7                                              1 	(obj:0.00986)
x#96#49                                             1 	(obj:0.01377)
x#97#51                                             1 	(obj:0.00867)
x#98#21                                             1 	(obj:0.00901)
x#99#30                                             1 	(obj:0.01037)
x#100#42                                            1 	(obj:0.00833)
x#101#48                                            1 	(obj:0.01581)
x#102#51                                            1 	(obj:0.01309)
x#103#48                                            1 	(obj:0.01615)
x#104#41                                            1 	(obj:0.01887)
x#105#58                                            1 	(obj:0.01564)
x#106#30                                            1 	(obj:0.01836)
x#107#33                                            1 	(obj:0.01207)
x#108#2                                             1 	(obj:0.00238)
x#109#42                                            1 	(obj:0.00833)
x#110#23                                            1 	(obj:0.0136)
x#111#27                                            1 	(obj:0.0034)
x#112#34                                            1 	(obj:0.01122)
x#113#41                                            1 	(obj:0.00918)
x#114#43                                            1 	(obj:0.00578)
x#115#15                                            1 	(obj:0.02278)
x#116#42                                            1 	(obj:0.02125)
x#117#53                                            1 	(obj:0.01394)
x#118#21                                            1 	(obj:0.00357)
x#119#11                                            1 	(obj:0.00544)
x#120#32                                            1 	(obj:0.00748)
x#121#15                                            1 	(obj:0.01683)
x#122#30                                            1 	(obj:0.0204)
x#123#21                                            1 	(obj:0.0204)
x#124#51                                            1 	(obj:0.01445)
x#125#30                                            1 	(obj:0.00867)
x#126#2                                             1 	(obj:0.0034)
x#127#11                                            1 	(obj:0.00901)
x#128#27                                            1 	(obj:0.01598)
x#129#44                                            1 	(obj:0.0221)
x#130#11                                            1 	(obj:0.02176)
x#131#34                                            1 	(obj:0.01598)
x#132#32                                            1 	(obj:0.00459)
x#133#9                                             1 	(obj:0.00561)
x#134#51                                            1 	(obj:0.0102)
x#135#34                                            1 	(obj:0.00935)
x#136#57                                            1 	(obj:0.00918)
x#137#51                                            1 	(obj:0.02023)
x#138#42                                            1 	(obj:0.01683)
x#139#58                                            1 	(obj:0.00391)
x#140#32                                            1 	(obj:0.00986)
x#141#28                                            1 	(obj:0.01003)
x#142#44                                            1 	(obj:0.0255)
x#143#18                                            1 	(obj:0.00595)
x#144#28                                            1 	(obj:0.00986)
x#145#53                                            1 	(obj:0.00612)
x#146#30                                            1 	(obj:0.02278)
x#147#23                                            1 	(obj:0.01972)
x#148#44                                            1 	(obj:0.01445)
x#149#19                                            1 	(obj:0.00697)
x#150#28                                            1 	(obj:0.01717)
x#151#51                                            1 	(obj:0.00646)
x#152#1                                             1 	(obj:0.03876)
x#153#48                                            1 	(obj:0.00697)
x#154#41                                            1 	(obj:0.02907)
x#155#43                                            1 	(obj:0.02839)
x#156#19                                            1 	(obj:0.01751)
x#157#27                                            1 	(obj:0.01139)
x#158#27                                            1 	(obj:0.01445)
x#159#15                                            1 	(obj:0.00816)
x#160#18                                            1 	(obj:0.00646)
x#161#16                                            1 	(obj:0.00255)
x#162#48                                            1 	(obj:0.01989)
x#163#2                                             1 	(obj:0.02074)
x#164#32                                            1 	(obj:0.02363)
x#165#34                                            1 	(obj:0.01224)
x#166#16                                            1 	(obj:0.00255)
x#167#33                                            1 	(obj:0.01394)
x#168#42                                            1 	(obj:0.01394)
x#169#19                                            1 	(obj:0.00085)
x#170#34                                            1 	(obj:0.00646)
x#171#41                                            1 	(obj:0.01139)
x#172#30                                            1 	(obj:0.01632)
x#173#15                                            1 	(obj:0.00476)
x#174#28                                            1 	(obj:0.01615)
x#175#27                                            1 	(obj:0.01394)
x#176#26                                            1 	(obj:0.02601)
x#177#26                                            1 	(obj:0.02737)
x#178#43                                            1 	(obj:0.00748)
x#179#49                                            1 	(obj:0.02278)
x#180#42                                            1 	(obj:0.01445)
x#181#53                                            1 	(obj:0.01088)
x#182#49                                            1 	(obj:0.01292)
x#183#33                                            1 	(obj:0.00833)
x#184#49                                            1 	(obj:0.01989)
x#185#5                                             1 	(obj:0.02006)
x#186#11                                            1 	(obj:0.02227)
x#187#44                                            1 	(obj:0.01649)
x#188#23                                            1 	(obj:0.02482)
x#189#44                                            1 	(obj:0.01989)
x#190#27                                            1 	(obj:0.0068)
x#191#28                                            1 	(obj:0.01275)
x#192#42                                            1 	(obj:0.0238)
x#193#26                                            1 	(obj:0.0187)
x#194#7                                             1 	(obj:0.02091)
x#195#23                                            1 	(obj:0.03128)
x#196#51                                            1 	(obj:0.02057)
x#197#41                                            1 	(obj:0.02737)
x#198#51                                            1 	(obj:0.00357)
x#199#9                                             1 	(obj:0.00765)
x#200#18                                            1 	(obj:0.01989)
x#201#18                                            1 	(obj:0.00476)
x#202#5                                             1 	(obj:0.01683)
x#203#18                                            1 	(obj:0.02159)
x#204#57                                            1 	(obj:0.00867)
x#205#57                                            1 	(obj:0.017)
x#206#33                                            1 	(obj:0.0204)
x#207#49                                            1 	(obj:0.00935)
x#208#1                                             1 	(obj:0.02329)
x#209#5                                             1 	(obj:0.01241)
x#210#58                                            1 	(obj:0.02414)
x#211#58                                            1 	(obj:0.00748)
x#212#5                                             1 	(obj:0.02193)
x#213#34                                            1 	(obj:0.01207)
x#214#43                                            1 	(obj:0.01904)
x#215#30                                            1 	(obj:0.02686)
x#216#28                                            1 	(obj:0.00629)
x#217#16                                            1 	(obj:0.01632)
x#218#27                                            1 	(obj:0.01734)
x#219#2                                             1 	(obj:0.02363)
x#220#28                                            1 	(obj:0.02261)
x#221#34                                            1 	(obj:0.01785)
x#222#5                                             1 	(obj:0.01003)
x#223#18                                            1 	(obj:0.01173)
x#224#57                                            1 	(obj:0.00986)
x#225#18                                            1 	(obj:0.00357)
x#226#7                                             1 	(obj:0.02159)
x#227#23                                            1 	(obj:0.01921)
x#228#9                                             1 	(obj:0.01275)
x#229#15                                            1 	(obj:0.01377)
x#230#5                                             1 	(obj:0.02363)
x#231#15                                            1 	(obj:0.00204)
x#232#1                                             1 	(obj:0.02652)
x#233#57                                            1 	(obj:0.02006)
x#234#58                                            1 	(obj:0.03094)
x#235#44                                            1 	(obj:0.00578)
x#236#32                                            1 	(obj:0.0153)
x#237#51                                            1 	(obj:0.01632)
x#238#7                                             1 	(obj:0.02346)
x#239#21                                            1 	(obj:0.00425)
x#240#33                                            1 	(obj:0.01054)
x#241#21                                            1 	(obj:0.00799)
x#242#19                                            1 	(obj:0.00425)
x#243#9                                             1 	(obj:0.00425)
x#244#11                                            1 	(obj:0.01853)
x#245#23                                            1 	(obj:0.01445)
x#246#30                                            1 	(obj:0.01666)
x#247#51                                            1 	(obj:0.01377)
x#248#33                                            1 	(obj:0.00493)
x#249#58                                            1 	(obj:0.01139)
x#250#34                                            1 	(obj:0.02125)
x#251#53                                            1 	(obj:0.01564)
x#252#26                                            1 	(obj:0.02244)
x#253#53                                            1 	(obj:0.01037)
x#254#57                                            1 	(obj:0.01241)
x#255#23                                            1 	(obj:0.0238)
x#256#32                                            1 	(obj:0.01632)
x#257#53                                            1 	(obj:0.0085)
x#258#19                                            1 	(obj:0.01241)
x#259#33                                            1 	(obj:0.0238)
x#260#5                                             1 	(obj:0.00986)
x#261#21                                            1 	(obj:0.00816)
x#262#58                                            1 	(obj:0.02261)
x#263#44                                            1 	(obj:0.02584)
x#264#41                                            1 	(obj:0.00901)
x#265#57                                            1 	(obj:0.00204)
x#266#32                                            1 	(obj:0.00884)
x#267#27                                            1 	(obj:0.00612)
x#268#53                                            1 	(obj:0.01666)
x#269#53                                            1 	(obj:0.00918)
x#270#58                                            1 	(obj:0.02652)
x#271#18                                            1 	(obj:0.00493)
x#272#1                                             1 	(obj:0.02686)
x#273#49                                            1 	(obj:0.00629)
x#274#18                                            1 	(obj:0.01802)
x#275#9                                             1 	(obj:0.02244)
x#276#18                                            1 	(obj:0.00986)
x#277#51                                            1 	(obj:0.00051)
x#278#19                                            1 	(obj:0.01598)
x#279#23                                            1 	(obj:0.02227)
x#280#16                                            1 	(obj:0.00102)
x#281#49                                            1 	(obj:0.02601)
x#282#32                                            1 	(obj:0.01768)
x#283#11                                            1 	(obj:0.0119)
x#284#41                                            1 	(obj:0.03315)
x#285#34                                            1 	(obj:0.00884)
x#286#57                                            1 	(obj:0.01462)
x#287#51                                            1 	(obj:0.00799)
x#288#21                                            1 	(obj:0.00867)
x#289#21                                            1 	(obj:0.01275)
x#290#32                                            1 	(obj:0.03264)
x#291#15                                            1 	(obj:0.01819)
x#292#18                                            1 	(obj:0.00578)
x#293#57                                            1 	(obj:0.01224)
x#294#15                                            1 	(obj:0.02975)
x#295#43                                            1 	(obj:0.02686)
x#296#26                                            1 	(obj:0.02754)
x#297#11                                            1 	(obj:0.0153)
x#298#21                                            1 	(obj:0.01462)
x#299#23                                            1 	(obj:0.02788)
x#300#16                                            1 	(obj:0.0051)
